p wcnf 378 1312
w -2 0.367879 0
w 2 2.718282 0
w -3 0.367879 0
w 3 2.718282 0
w -4 0.367879 0
w 4 2.718282 0
w -5 0.367879 0
w 5 2.718282 0
w -6 0.367879 0
w 6 2.718282 0
w -7 0.367879 0
w 7 2.718282 0
w -8 0.367879 0
w 8 2.718282 0
w -9 0.367879 0
w 9 2.718282 0
w -10 0.367879 0
w 10 2.718282 0
w -11 0.367879 0
w 11 2.718282 0
w -12 0.367879 0
w 12 2.718282 0
w -13 0.367879 0
w 13 2.718282 0
w -14 0.367879 0
w 14 2.718282 0
w -15 0.367879 0
w 15 2.718282 0
w -16 0.367879 0
w 16 2.718282 0
w -17 0.367879 0
w 17 2.718282 0
w -18 0.367879 0
w 18 2.718282 0
w -19 0.367879 0
w 19 2.718282 0
w -21 0.367879 0
w 21 2.718282 0
w -22 0.367879 0
w 22 2.718282 0
w -23 0.367879 0
w 23 2.718282 0
w -24 0.367879 0
w 24 2.718282 0
w -25 0.367879 0
w 25 2.718282 0
w -26 0.367879 0
w 26 2.718282 0
w -27 0.367879 0
w 27 2.718282 0
w -28 0.367879 0
w 28 2.718282 0
w -29 0.367879 0
w 29 2.718282 0
w -30 0.367879 0
w 30 2.718282 0
w -32 0.367879 0
w 32 2.718282 0
w -33 0.367879 0
w 33 2.718282 0
w -34 0.367879 0
w 34 2.718282 0
w -35 0.367879 0
w 35 2.718282 0
w -36 0.367879 0
w 36 2.718282 0
w -37 0.367879 0
w 37 2.718282 0
w -38 0.367879 0
w 38 2.718282 0
w -39 0.367879 0
w 39 2.718282 0
w -40 0.367879 0
w 40 2.718282 0
w -41 0.367879 0
w 41 2.718282 0
w -42 0.367879 0
w 42 2.718282 0
w -43 0.367879 0
w 43 2.718282 0
w -44 0.367879 0
w 44 2.718282 0
w -45 0.367879 0
w 45 2.718282 0
w -47 0.367879 0
w 47 2.718282 0
w -48 0.367879 0
w 48 2.718282 0
w -49 0.367879 0
w 49 2.718282 0
w -50 0.367879 0
w 50 2.718282 0
w -51 0.367879 0
w 51 2.718282 0
w -52 0.367879 0
w 52 2.718282 0
w -53 0.367879 0
w 53 2.718282 0
w -54 0.367879 0
w 54 2.718282 0
w -55 0.367879 0
w 55 2.718282 0
w -56 0.367879 0
w 56 2.718282 0
w -57 0.367879 0
w 57 2.718282 0
w -58 0.367879 0
w 58 2.718282 0
w -59 0.367879 0
w 59 2.718282 0
w -61 0.367879 0
w 61 2.718282 0
w -62 0.367879 0
w 62 2.718282 0
w -63 0.367879 0
w 63 2.718282 0
w -64 0.367879 0
w 64 2.718282 0
w -65 0.367879 0
w 65 2.718282 0
w -66 0.367879 0
w 66 2.718282 0
w -67 0.367879 0
w 67 2.718282 0
w -68 0.367879 0
w 68 2.718282 0
w -69 0.367879 0
w 69 2.718282 0
w -70 0.367879 0
w 70 2.718282 0
w -71 0.367879 0
w 71 2.718282 0
w -73 0.367879 0
w 73 2.718282 0
w -74 0.367879 0
w 74 2.718282 0
w -75 0.367879 0
w 75 2.718282 0
w -76 0.367879 0
w 76 2.718282 0
w -77 0.367879 0
w 77 2.718282 0
w -78 0.367879 0
w 78 2.718282 0
w -79 0.367879 0
w 79 2.718282 0
w -80 0.367879 0
w 80 2.718282 0
w -81 0.367879 0
w 81 2.718282 0
w -82 0.367879 0
w 82 2.718282 0
w -83 0.367879 0
w 83 2.718282 0
w -85 0.367879 0
w 85 2.718282 0
w -86 0.367879 0
w 86 2.718282 0
w -87 0.367879 0
w 87 2.718282 0
w -88 0.367879 0
w 88 2.718282 0
w -90 0.367879 0
w 90 2.718282 0
w -91 0.367879 0
w 91 2.718282 0
w -92 0.367879 0
w 92 2.718282 0
w -93 0.367879 0
w 93 2.718282 0
w -94 0.367879 0
w 94 2.718282 0
w -95 0.367879 0
w 95 2.718282 0
w -96 0.367879 0
w 96 2.718282 0
w -97 0.367879 0
w 97 2.718282 0
w -98 0.367879 0
w 98 2.718282 0
w -99 0.367879 0
w 99 2.718282 0
w -100 0.367879 0
w 100 2.718282 0
w -101 0.367879 0
w 101 2.718282 0
w -102 0.367879 0
w 102 2.718282 0
w -103 0.367879 0
w 103 2.718282 0
w -104 0.367879 0
w 104 2.718282 0
w -106 0.367879 0
w 106 2.718282 0
w -107 0.367879 0
w 107 2.718282 0
w -108 0.367879 0
w 108 2.718282 0
w -109 0.367879 0
w 109 2.718282 0
w -110 0.367879 0
w 110 2.718282 0
w -111 0.367879 0
w 111 2.718282 0
w -112 0.367879 0
w 112 2.718282 0
w -113 0.367879 0
w 113 2.718282 0
w -114 0.367879 0
w 114 2.718282 0
w -115 0.367879 0
w 115 2.718282 0
w -116 0.367879 0
w 116 2.718282 0
w -117 0.367879 0
w 117 2.718282 0
w -118 0.367879 0
w 118 2.718282 0
w -119 0.367879 0
w 119 2.718282 0
w -120 0.367879 0
w 120 2.718282 0
w -121 0.367879 0
w 121 2.718282 0
w -122 0.367879 0
w 122 2.718282 0
w -124 0.367879 0
w 124 2.718282 0
w -125 0.367879 0
w 125 2.718282 0
w -126 0.367879 0
w 126 2.718282 0
w -127 0.367879 0
w 127 2.718282 0
w -128 0.367879 0
w 128 2.718282 0
w -129 0.367879 0
w 129 2.718282 0
w -130 0.367879 0
w 130 2.718282 0
w -131 0.367879 0
w 131 2.718282 0
w -132 0.367879 0
w 132 2.718282 0
w -133 0.367879 0
w 133 2.718282 0
w -134 0.367879 0
w 134 2.718282 0
w -136 0.367879 0
w 136 2.718282 0
w -137 0.367879 0
w 137 2.718282 0
w -138 0.367879 0
w 138 2.718282 0
w -139 0.367879 0
w 139 2.718282 0
w -140 0.367879 0
w 140 2.718282 0
w -141 0.367879 0
w 141 2.718282 0
w -142 0.367879 0
w 142 2.718282 0
w -143 0.367879 0
w 143 2.718282 0
w -145 0.367879 0
w 145 2.718282 0
w -146 0.367879 0
w 146 2.718282 0
w -147 0.367879 0
w 147 2.718282 0
w -148 0.367879 0
w 148 2.718282 0
w -149 0.367879 0
w 149 2.718282 0
w -150 0.367879 0
w 150 2.718282 0
w -151 0.367879 0
w 151 2.718282 0
w -152 0.367879 0
w 152 2.718282 0
w -153 0.367879 0
w 153 2.718282 0
w -154 0.367879 0
w 154 2.718282 0
w -155 0.367879 0
w 155 2.718282 0
w -157 0.367879 0
w 157 2.718282 0
w -158 0.367879 0
w 158 2.718282 0
w -159 0.367879 0
w 159 2.718282 0
w -160 0.367879 0
w 160 2.718282 0
w -161 0.367879 0
w 161 2.718282 0
w -162 0.367879 0
w 162 2.718282 0
w -163 0.367879 0
w 163 2.718282 0
w -164 0.367879 0
w 164 2.718282 0
w -165 0.367879 0
w 165 2.718282 0
w -166 0.367879 0
w 166 2.718282 0
w -167 0.367879 0
w 167 2.718282 0
w -169 0.367879 0
w 169 2.718282 0
w -170 0.367879 0
w 170 2.718282 0
w -171 0.367879 0
w 171 2.718282 0
w -172 0.367879 0
w 172 2.718282 0
w -173 0.367879 0
w 173 2.718282 0
w -175 0.367879 0
w 175 2.718282 0
w -176 0.367879 0
w 176 2.718282 0
w -177 0.367879 0
w 177 2.718282 0
w -178 0.367879 0
w 178 2.718282 0
w -179 0.367879 0
w 179 2.718282 0
w -180 0.367879 0
w 180 2.718282 0
w -181 0.367879 0
w 181 2.718282 0
w -182 0.367879 0
w 182 2.718282 0
w -183 0.367879 0
w 183 2.718282 0
w -184 0.367879 0
w 184 2.718282 0
w -185 0.367879 0
w 185 2.718282 0
w -186 0.367879 0
w 186 2.718282 0
w -188 0.367879 0
w 188 2.718282 0
w -189 0.367879 0
w 189 2.718282 0
w -190 0.367879 0
w 190 2.718282 0
w -191 0.367879 0
w 191 2.718282 0
w -192 0.367879 0
w 192 2.718282 0
w -193 0.367879 0
w 193 2.718282 0
w -194 0.367879 0
w 194 2.718282 0
w -196 0.367879 0
w 196 2.718282 0
w -197 0.367879 0
w 197 2.718282 0
w -198 0.367879 0
w 198 2.718282 0
w -199 0.367879 0
w 199 2.718282 0
w -200 0.367879 0
w 200 2.718282 0
w -201 0.367879 0
w 201 2.718282 0
w -202 0.367879 0
w 202 2.718282 0
w -203 0.367879 0
w 203 2.718282 0
w -205 0.367879 0
w 205 2.718282 0
w -206 0.367879 0
w 206 2.718282 0
w -207 0.367879 0
w 207 2.718282 0
w -208 0.367879 0
w 208 2.718282 0
w -209 0.367879 0
w 209 2.718282 0
w -210 0.367879 0
w 210 2.718282 0
w -211 0.367879 0
w 211 2.718282 0
w -212 0.367879 0
w 212 2.718282 0
w -213 0.367879 0
w 213 2.718282 0
w -214 0.367879 0
w 214 2.718282 0
w -216 0.367879 0
w 216 2.718282 0
w -217 0.367879 0
w 217 2.718282 0
w -218 0.367879 0
w 218 2.718282 0
w -219 0.367879 0
w 219 2.718282 0
w -220 0.367879 0
w 220 2.718282 0
w -221 0.367879 0
w 221 2.718282 0
w -222 0.367879 0
w 222 2.718282 0
w -223 0.367879 0
w 223 2.718282 0
w -224 0.367879 0
w 224 2.718282 0
w -225 0.367879 0
w 225 2.718282 0
w -226 0.367879 0
w 226 2.718282 0
w -227 0.367879 0
w 227 2.718282 0
w -229 0.367879 0
w 229 2.718282 0
w -230 0.367879 0
w 230 2.718282 0
w -231 0.367879 0
w 231 2.718282 0
w -232 0.367879 0
w 232 2.718282 0
w -233 0.367879 0
w 233 2.718282 0
w -234 0.367879 0
w 234 2.718282 0
w -235 0.367879 0
w 235 2.718282 0
w -236 0.367879 0
w 236 2.718282 0
w -237 0.367879 0
w 237 2.718282 0
w -239 0.367879 0
w 239 2.718282 0
w -240 0.367879 0
w 240 2.718282 0
w -241 0.367879 0
w 241 2.718282 0
w -242 0.367879 0
w 242 2.718282 0
w -243 0.367879 0
w 243 2.718282 0
w -244 0.367879 0
w 244 2.718282 0
w -246 0.367879 0
w 246 2.718282 0
w -247 0.367879 0
w 247 2.718282 0
w -248 0.367879 0
w 248 2.718282 0
w -249 0.367879 0
w 249 2.718282 0
w -250 0.367879 0
w 250 2.718282 0
w -251 0.367879 0
w 251 2.718282 0
w -253 0.367879 0
w 253 2.718282 0
w -254 0.367879 0
w 254 2.718282 0
w -255 0.367879 0
w 255 2.718282 0
w -256 0.367879 0
w 256 2.718282 0
w -257 0.367879 0
w 257 2.718282 0
w -258 0.367879 0
w 258 2.718282 0
w -260 0.367879 0
w 260 2.718282 0
w -261 0.367879 0
w 261 2.718282 0
w -262 0.367879 0
w 262 2.718282 0
w -263 0.367879 0
w 263 2.718282 0
w -265 0.367879 0
w 265 2.718282 0
w -266 0.367879 0
w 266 2.718282 0
w -267 0.367879 0
w 267 2.718282 0
w -268 0.367879 0
w 268 2.718282 0
w -269 0.367879 0
w 269 2.718282 0
w -270 0.367879 0
w 270 2.718282 0
w -272 0.367879 0
w 272 2.718282 0
w -273 0.367879 0
w 273 2.718282 0
w -274 0.367879 0
w 274 2.718282 0
w -275 0.367879 0
w 275 2.718282 0
w -277 0.367879 0
w 277 2.718282 0
w -278 0.367879 0
w 278 2.718282 0
w -279 0.367879 0
w 279 2.718282 0
w -280 0.367879 0
w 280 2.718282 0
w -281 0.367879 0
w 281 2.718282 0
w -282 0.367879 0
w 282 2.718282 0
w -283 0.367879 0
w 283 2.718282 0
w -284 0.367879 0
w 284 2.718282 0
w -286 0.367879 0
w 286 2.718282 0
w -287 0.367879 0
w 287 2.718282 0
w -288 0.367879 0
w 288 2.718282 0
w -289 0.367879 0
w 289 2.718282 0
w -290 0.367879 0
w 290 2.718282 0
w -291 0.367879 0
w 291 2.718282 0
w -293 0.367879 0
w 293 2.718282 0
w -294 0.367879 0
w 294 2.718282 0
w -295 0.367879 0
w 295 2.718282 0
w -297 0.367879 0
w 297 2.718282 0
w -298 0.367879 0
w 298 2.718282 0
w -299 0.367879 0
w 299 2.718282 0
w -301 0.367879 0
w 301 2.718282 0
w -302 0.367879 0
w 302 2.718282 0
w -303 0.367879 0
w 303 2.718282 0
w -304 0.367879 0
w 304 2.718282 0
w -305 0.367879 0
w 305 2.718282 0
w -306 0.367879 0
w 306 2.718282 0
w -307 0.367879 0
w 307 2.718282 0
w -308 0.367879 0
w 308 2.718282 0
w -310 0.367879 0
w 310 2.718282 0
w -311 0.367879 0
w 311 2.718282 0
w -312 0.367879 0
w 312 2.718282 0
w -313 0.367879 0
w 313 2.718282 0
w -314 0.367879 0
w 314 2.718282 0
w -315 0.367879 0
w 315 2.718282 0
w -316 0.367879 0
w 316 2.718282 0
w -317 0.367879 0
w 317 2.718282 0
w -318 0.367879 0
w 318 2.718282 0
w -319 0.367879 0
w 319 2.718282 0
w -320 0.367879 0
w 320 2.718282 0
w -322 0.367879 0
w 322 2.718282 0
w -323 0.367879 0
w 323 2.718282 0
w -324 0.367879 0
w 324 2.718282 0
w -325 0.367879 0
w 325 2.718282 0
w -326 0.367879 0
w 326 2.718282 0
w -327 0.367879 0
w 327 2.718282 0
w -329 0.367879 0
w 329 2.718282 0
w -330 0.367879 0
w 330 2.718282 0
w -331 0.367879 0
w 331 2.718282 0
w -332 0.367879 0
w 332 2.718282 0
w -334 0.367879 0
w 334 2.718282 0
w -335 0.367879 0
w 335 2.718282 0
w -336 0.367879 0
w 336 2.718282 0
w -337 0.367879 0
w 337 2.718282 0
w -338 0.367879 0
w 338 2.718282 0
w -340 0.367879 0
w 340 2.718282 0
w -341 0.367879 0
w 341 2.718282 0
w -342 0.367879 0
w 342 2.718282 0
w -344 0.367879 0
w 344 2.718282 0
w -345 0.367879 0
w 345 2.718282 0
w -347 0.367879 0
w 347 2.718282 0
w -348 0.367879 0
w 348 2.718282 0
w -349 0.367879 0
w 349 2.718282 0
w -351 0.367879 0
w 351 2.718282 0
w -352 0.367879 0
w 352 2.718282 0
w -353 0.367879 0
w 353 2.718282 0
w -355 0.367879 0
w 355 2.718282 0
w -356 0.367879 0
w 356 2.718282 0
w -358 0.367879 0
w 358 2.718282 0
w -359 0.367879 0
w 359 2.718282 0
w -361 0.367879 0
w 361 2.718282 0
w -363 0.367879 0
w 363 2.718282 0
w -364 0.367879 0
w 364 2.718282 0
w -366 0.367879 0
w 366 2.718282 0
w -368 0.367879 0
w 368 2.718282 0
w -369 0.367879 0
w 369 2.718282 0
w -371 0.367879 0
w 371 2.718282 0
w -372 0.367879 0
w 372 2.718282 0
w -374 0.367879 0
w 374 2.718282 0
w -376 0.367879 0
w 376 2.718282 0
2 1 20 0
2 -1 -20 0
-2 1 -20 0
-2 -1 20 0
3 1 46 0
3 -1 -46 0
-3 1 -46 0
-3 -1 46 0
4 1 89 0
4 -1 -89 0
-4 1 -89 0
-4 -1 89 0
5 1 135 0
5 -1 -135 0
-5 1 -135 0
-5 -1 135 0
6 1 195 0
6 -1 -195 0
-6 1 -195 0
-6 -1 195 0
7 1 228 0
7 -1 -228 0
-7 1 -228 0
-7 -1 228 0
8 1 238 0
8 -1 -238 0
-8 1 -238 0
-8 -1 238 0
9 1 252 0
9 -1 -252 0
-9 1 -252 0
-9 -1 252 0
10 1 259 0
10 -1 -259 0
-10 1 -259 0
-10 -1 259 0
11 1 276 0
11 -1 -276 0
-11 1 -276 0
-11 -1 276 0
12 1 309 0
12 -1 -309 0
-12 1 -309 0
-12 -1 309 0
13 1 321 0
13 -1 -321 0
-13 1 -321 0
-13 -1 321 0
14 1 339 0
14 -1 -339 0
-14 1 -339 0
-14 -1 339 0
15 1 354 0
15 -1 -354 0
-15 1 -354 0
-15 -1 354 0
16 1 357 0
16 -1 -357 0
-16 1 -357 0
-16 -1 357 0
17 1 370 0
17 -1 -370 0
-17 1 -370 0
-17 -1 370 0
18 1 373 0
18 -1 -373 0
-18 1 -373 0
-18 -1 373 0
19 1 377 0
19 -1 -377 0
-19 1 -377 0
-19 -1 377 0
21 20 72 0
21 -20 -72 0
-21 20 -72 0
-21 -20 72 0
22 20 187 0
22 -20 -187 0
-22 20 -187 0
-22 -20 187 0
23 20 215 0
23 -20 -215 0
-23 20 -215 0
-23 -20 215 0
24 20 238 0
24 -20 -238 0
-24 20 -238 0
-24 -20 238 0
25 20 252 0
25 -20 -252 0
-25 20 -252 0
-25 -20 252 0
26 20 343 0
26 -20 -343 0
-26 20 -343 0
-26 -20 343 0
27 20 350 0
27 -20 -350 0
-27 20 -350 0
-27 -20 350 0
28 20 354 0
28 -20 -354 0
-28 20 -354 0
-28 -20 354 0
29 20 365 0
29 -20 -365 0
-29 20 -365 0
-29 -20 365 0
30 20 370 0
30 -20 -370 0
-30 20 -370 0
-30 -20 370 0
32 31 46 0
32 -31 -46 0
-32 31 -46 0
-32 -31 46 0
33 31 60 0
33 -31 -60 0
-33 31 -60 0
-33 -31 60 0
34 31 105 0
34 -31 -105 0
-34 31 -105 0
-34 -31 105 0
35 31 123 0
35 -31 -123 0
-35 31 -123 0
-35 -31 123 0
36 31 135 0
36 -31 -135 0
-36 31 -135 0
-36 -31 135 0
37 31 144 0
37 -31 -144 0
-37 31 -144 0
-37 -31 144 0
38 31 228 0
38 -31 -228 0
-38 31 -228 0
-38 -31 228 0
39 31 259 0
39 -31 -259 0
-39 31 -259 0
-39 -31 259 0
40 31 264 0
40 -31 -264 0
-40 31 -264 0
-40 -31 264 0
41 31 292 0
41 -31 -292 0
-41 31 -292 0
-41 -31 292 0
42 31 328 0
42 -31 -328 0
-42 31 -328 0
-42 -31 328 0
43 31 350 0
43 -31 -350 0
-43 31 -350 0
-43 -31 350 0
44 31 373 0
44 -31 -373 0
-44 31 -373 0
-44 -31 373 0
45 31 377 0
45 -31 -377 0
-45 31 -377 0
-45 -31 377 0
47 46 60 0
47 -46 -60 0
-47 46 -60 0
-47 -46 60 0
48 46 105 0
48 -46 -105 0
-48 46 -105 0
-48 -46 105 0
49 46 123 0
49 -46 -123 0
-49 46 -123 0
-49 -46 123 0
50 46 135 0
50 -46 -135 0
-50 46 -135 0
-50 -46 135 0
51 46 195 0
51 -46 -195 0
-51 46 -195 0
-51 -46 195 0
52 46 228 0
52 -46 -228 0
-52 46 -228 0
-52 -46 228 0
53 46 238 0
53 -46 -238 0
-53 46 -238 0
-53 -46 238 0
54 46 321 0
54 -46 -321 0
-54 46 -321 0
-54 -46 321 0
55 46 328 0
55 -46 -328 0
-55 46 -328 0
-55 -46 328 0
56 46 333 0
56 -46 -333 0
-56 46 -333 0
-56 -46 333 0
57 46 350 0
57 -46 -350 0
-57 46 -350 0
-57 -46 350 0
58 46 367 0
58 -46 -367 0
-58 46 -367 0
-58 -46 367 0
59 46 370 0
59 -46 -370 0
-59 46 -370 0
-59 -46 370 0
61 60 72 0
61 -60 -72 0
-61 60 -72 0
-61 -60 72 0
62 60 84 0
62 -60 -84 0
-62 60 -84 0
-62 -60 84 0
63 60 89 0
63 -60 -89 0
-63 60 -89 0
-63 -60 89 0
64 60 123 0
64 -60 -123 0
-64 60 -123 0
-64 -60 123 0
65 60 238 0
65 -60 -238 0
-65 60 -238 0
-65 -60 238 0
66 60 252 0
66 -60 -252 0
-66 60 -252 0
-66 -60 252 0
67 60 321 0
67 -60 -321 0
-67 60 -321 0
-67 -60 321 0
68 60 328 0
68 -60 -328 0
-68 60 -328 0
-68 -60 328 0
69 60 360 0
69 -60 -360 0
-69 60 -360 0
-69 -60 360 0
70 60 365 0
70 -60 -365 0
-70 60 -365 0
-70 -60 365 0
71 60 370 0
71 -60 -370 0
-71 60 -370 0
-71 -60 370 0
73 72 168 0
73 -72 -168 0
-73 72 -168 0
-73 -72 168 0
74 72 174 0
74 -72 -174 0
-74 72 -174 0
-74 -72 174 0
75 72 238 0
75 -72 -238 0
-75 72 -238 0
-75 -72 238 0
76 72 259 0
76 -72 -259 0
-76 72 -259 0
-76 -72 259 0
77 72 271 0
77 -72 -271 0
-77 72 -271 0
-77 -72 271 0
78 72 285 0
78 -72 -285 0
-78 72 -285 0
-78 -72 285 0
79 72 321 0
79 -72 -321 0
-79 72 -321 0
-79 -72 321 0
80 72 357 0
80 -72 -357 0
-80 72 -357 0
-80 -72 357 0
81 72 375 0
81 -72 -375 0
-81 72 -375 0
-81 -72 375 0
82 72 377 0
82 -72 -377 0
-82 72 -377 0
-82 -72 377 0
83 72 378 0
83 -72 -378 0
-83 72 -378 0
-83 -72 378 0
85 84 195 0
85 -84 -195 0
-85 84 -195 0
-85 -84 195 0
86 84 285 0
86 -84 -285 0
-86 84 -285 0
-86 -84 285 0
87 84 333 0
87 -84 -333 0
-87 84 -333 0
-87 -84 333 0
88 84 362 0
88 -84 -362 0
-88 84 -362 0
-88 -84 362 0
90 89 123 0
90 -89 -123 0
-90 89 -123 0
-90 -89 123 0
91 89 168 0
91 -89 -168 0
-91 89 -168 0
-91 -89 168 0
92 89 195 0
92 -89 -195 0
-92 89 -195 0
-92 -89 195 0
93 89 238 0
93 -89 -238 0
-93 89 -238 0
-93 -89 238 0
94 89 252 0
94 -89 -252 0
-94 89 -252 0
-94 -89 252 0
95 89 259 0
95 -89 -259 0
-95 89 -259 0
-95 -89 259 0
96 89 264 0
96 -89 -264 0
-96 89 -264 0
-96 -89 264 0
97 89 271 0
97 -89 -271 0
-97 89 -271 0
-97 -89 271 0
98 89 296 0
98 -89 -296 0
-98 89 -296 0
-98 -89 296 0
99 89 328 0
99 -89 -328 0
-99 89 -328 0
-99 -89 328 0
100 89 362 0
100 -89 -362 0
-100 89 -362 0
-100 -89 362 0
101 89 367 0
101 -89 -367 0
-101 89 -367 0
-101 -89 367 0
102 89 370 0
102 -89 -370 0
-102 89 -370 0
-102 -89 370 0
103 89 373 0
103 -89 -373 0
-103 89 -373 0
-103 -89 373 0
104 89 377 0
104 -89 -377 0
-104 89 -377 0
-104 -89 377 0
106 105 123 0
106 -105 -123 0
-106 105 -123 0
-106 -105 123 0
107 105 135 0
107 -105 -135 0
-107 105 -135 0
-107 -105 135 0
108 105 144 0
108 -105 -144 0
-108 105 -144 0
-108 -105 144 0
109 105 156 0
109 -105 -156 0
-109 105 -156 0
-109 -105 156 0
110 105 187 0
110 -105 -187 0
-110 105 -187 0
-110 -105 187 0
111 105 195 0
111 -105 -195 0
-111 105 -195 0
-111 -105 195 0
112 105 228 0
112 -105 -228 0
-112 105 -228 0
-112 -105 228 0
113 105 238 0
113 -105 -238 0
-113 105 -238 0
-113 -105 238 0
114 105 259 0
114 -105 -259 0
-114 105 -259 0
-114 -105 259 0
115 105 276 0
115 -105 -276 0
-115 105 -276 0
-115 -105 276 0
116 105 292 0
116 -105 -292 0
-116 105 -292 0
-116 -105 292 0
117 105 309 0
117 -105 -309 0
-117 105 -309 0
-117 -105 309 0
118 105 343 0
118 -105 -343 0
-118 105 -343 0
-118 -105 343 0
119 105 346 0
119 -105 -346 0
-119 105 -346 0
-119 -105 346 0
120 105 370 0
120 -105 -370 0
-120 105 -370 0
-120 -105 370 0
121 105 373 0
121 -105 -373 0
-121 105 -373 0
-121 -105 373 0
122 105 375 0
122 -105 -375 0
-122 105 -375 0
-122 -105 375 0
124 123 135 0
124 -123 -135 0
-124 123 -135 0
-124 -123 135 0
125 123 204 0
125 -123 -204 0
-125 123 -204 0
-125 -123 204 0
126 123 264 0
126 -123 -264 0
-126 123 -264 0
-126 -123 264 0
127 123 296 0
127 -123 -296 0
-127 123 -296 0
-127 -123 296 0
128 123 309 0
128 -123 -309 0
-128 123 -309 0
-128 -123 309 0
129 123 346 0
129 -123 -346 0
-129 123 -346 0
-129 -123 346 0
130 123 350 0
130 -123 -350 0
-130 123 -350 0
-130 -123 350 0
131 123 360 0
131 -123 -360 0
-131 123 -360 0
-131 -123 360 0
132 123 365 0
132 -123 -365 0
-132 123 -365 0
-132 -123 365 0
133 123 373 0
133 -123 -373 0
-133 123 -373 0
-133 -123 373 0
134 123 375 0
134 -123 -375 0
-134 123 -375 0
-134 -123 375 0
136 135 144 0
136 -135 -144 0
-136 135 -144 0
-136 -135 144 0
137 135 195 0
137 -135 -195 0
-137 135 -195 0
-137 -135 195 0
138 135 204 0
138 -135 -204 0
-138 135 -204 0
-138 -135 204 0
139 135 238 0
139 -135 -238 0
-139 135 -238 0
-139 -135 238 0
140 135 259 0
140 -135 -259 0
-140 135 -259 0
-140 -135 259 0
141 135 328 0
141 -135 -328 0
-141 135 -328 0
-141 -135 328 0
142 135 339 0
142 -135 -339 0
-142 135 -339 0
-142 -135 339 0
143 135 354 0
143 -135 -354 0
-143 135 -354 0
-143 -135 354 0
145 144 156 0
145 -144 -156 0
-145 144 -156 0
-145 -144 156 0
146 144 228 0
146 -144 -228 0
-146 144 -228 0
-146 -144 228 0
147 144 252 0
147 -144 -252 0
-147 144 -252 0
-147 -144 252 0
148 144 292 0
148 -144 -292 0
-148 144 -292 0
-148 -144 292 0
149 144 321 0
149 -144 -321 0
-149 144 -321 0
-149 -144 321 0
150 144 328 0
150 -144 -328 0
-150 144 -328 0
-150 -144 328 0
151 144 333 0
151 -144 -333 0
-151 144 -333 0
-151 -144 333 0
152 144 360 0
152 -144 -360 0
-152 144 -360 0
-152 -144 360 0
153 144 362 0
153 -144 -362 0
-153 144 -362 0
-153 -144 362 0
154 144 365 0
154 -144 -365 0
-154 144 -365 0
-154 -144 365 0
155 144 377 0
155 -144 -377 0
-155 144 -377 0
-155 -144 377 0
157 156 174 0
157 -156 -174 0
-157 156 -174 0
-157 -156 174 0
158 156 259 0
158 -156 -259 0
-158 156 -259 0
-158 -156 259 0
159 156 285 0
159 -156 -285 0
-159 156 -285 0
-159 -156 285 0
160 156 296 0
160 -156 -296 0
-160 156 -296 0
-160 -156 296 0
161 156 300 0
161 -156 -300 0
-161 156 -300 0
-161 -156 300 0
162 156 321 0
162 -156 -321 0
-162 156 -321 0
-162 -156 321 0
163 156 346 0
163 -156 -346 0
-163 156 -346 0
-163 -156 346 0
164 156 362 0
164 -156 -362 0
-164 156 -362 0
-164 -156 362 0
165 156 367 0
165 -156 -367 0
-165 156 -367 0
-165 -156 367 0
166 156 373 0
166 -156 -373 0
-166 156 -373 0
-166 -156 373 0
167 156 375 0
167 -156 -375 0
-167 156 -375 0
-167 -156 375 0
169 168 252 0
169 -168 -252 0
-169 168 -252 0
-169 -168 252 0
170 168 285 0
170 -168 -285 0
-170 168 -285 0
-170 -168 285 0
171 168 343 0
171 -168 -343 0
-171 168 -343 0
-171 -168 343 0
172 168 346 0
172 -168 -346 0
-172 168 -346 0
-172 -168 346 0
173 168 350 0
173 -168 -350 0
-173 168 -350 0
-173 -168 350 0
175 174 204 0
175 -174 -204 0
-175 174 -204 0
-175 -174 204 0
176 174 215 0
176 -174 -215 0
-176 174 -215 0
-176 -174 215 0
177 174 228 0
177 -174 -228 0
-177 174 -228 0
-177 -174 228 0
178 174 238 0
178 -174 -238 0
-178 174 -238 0
-178 -174 238 0
179 174 259 0
179 -174 -259 0
-179 174 -259 0
-179 -174 259 0
180 174 276 0
180 -174 -276 0
-180 174 -276 0
-180 -174 276 0
181 174 285 0
181 -174 -285 0
-181 174 -285 0
-181 -174 285 0
182 174 321 0
182 -174 -321 0
-182 174 -321 0
-182 -174 321 0
183 174 328 0
183 -174 -328 0
-183 174 -328 0
-183 -174 328 0
184 174 354 0
184 -174 -354 0
-184 174 -354 0
-184 -174 354 0
185 174 375 0
185 -174 -375 0
-185 174 -375 0
-185 -174 375 0
186 174 378 0
186 -174 -378 0
-186 174 -378 0
-186 -174 378 0
188 187 259 0
188 -187 -259 0
-188 187 -259 0
-188 -187 259 0
189 187 271 0
189 -187 -271 0
-189 187 -271 0
-189 -187 271 0
190 187 321 0
190 -187 -321 0
-190 187 -321 0
-190 -187 321 0
191 187 339 0
191 -187 -339 0
-191 187 -339 0
-191 -187 339 0
192 187 370 0
192 -187 -370 0
-192 187 -370 0
-192 -187 370 0
193 187 375 0
193 -187 -375 0
-193 187 -375 0
-193 -187 375 0
194 187 377 0
194 -187 -377 0
-194 187 -377 0
-194 -187 377 0
196 195 204 0
196 -195 -204 0
-196 195 -204 0
-196 -195 204 0
197 195 245 0
197 -195 -245 0
-197 195 -245 0
-197 -195 245 0
198 195 252 0
198 -195 -252 0
-198 195 -252 0
-198 -195 252 0
199 195 285 0
199 -195 -285 0
-199 195 -285 0
-199 -195 285 0
200 195 309 0
200 -195 -309 0
-200 195 -309 0
-200 -195 309 0
201 195 346 0
201 -195 -346 0
-201 195 -346 0
-201 -195 346 0
202 195 360 0
202 -195 -360 0
-202 195 -360 0
-202 -195 360 0
203 195 375 0
203 -195 -375 0
-203 195 -375 0
-203 -195 375 0
205 204 245 0
205 -204 -245 0
-205 204 -245 0
-205 -204 245 0
206 204 276 0
206 -204 -276 0
-206 204 -276 0
-206 -204 276 0
207 204 333 0
207 -204 -333 0
-207 204 -333 0
-207 -204 333 0
208 204 346 0
208 -204 -346 0
-208 204 -346 0
-208 -204 346 0
209 204 350 0
209 -204 -350 0
-209 204 -350 0
-209 -204 350 0
210 204 354 0
210 -204 -354 0
-210 204 -354 0
-210 -204 354 0
211 204 362 0
211 -204 -362 0
-211 204 -362 0
-211 -204 362 0
212 204 365 0
212 -204 -365 0
-212 204 -365 0
-212 -204 365 0
213 204 375 0
213 -204 -375 0
-213 204 -375 0
-213 -204 375 0
214 204 378 0
214 -204 -378 0
-214 204 -378 0
-214 -204 378 0
216 215 238 0
216 -215 -238 0
-216 215 -238 0
-216 -215 238 0
217 215 245 0
217 -215 -245 0
-217 215 -245 0
-217 -215 245 0
218 215 264 0
218 -215 -264 0
-218 215 -264 0
-218 -215 264 0
219 215 276 0
219 -215 -276 0
-219 215 -276 0
-219 -215 276 0
220 215 292 0
220 -215 -292 0
-220 215 -292 0
-220 -215 292 0
221 215 321 0
221 -215 -321 0
-221 215 -321 0
-221 -215 321 0
222 215 333 0
222 -215 -333 0
-222 215 -333 0
-222 -215 333 0
223 215 343 0
223 -215 -343 0
-223 215 -343 0
-223 -215 343 0
224 215 346 0
224 -215 -346 0
-224 215 -346 0
-224 -215 346 0
225 215 360 0
225 -215 -360 0
-225 215 -360 0
-225 -215 360 0
226 215 370 0
226 -215 -370 0
-226 215 -370 0
-226 -215 370 0
227 215 377 0
227 -215 -377 0
-227 215 -377 0
-227 -215 377 0
229 228 245 0
229 -228 -245 0
-229 228 -245 0
-229 -228 245 0
230 228 276 0
230 -228 -276 0
-230 228 -276 0
-230 -228 276 0
231 228 300 0
231 -228 -300 0
-231 228 -300 0
-231 -228 300 0
232 228 309 0
232 -228 -309 0
-232 228 -309 0
-232 -228 309 0
233 228 321 0
233 -228 -321 0
-233 228 -321 0
-233 -228 321 0
234 228 343 0
234 -228 -343 0
-234 228 -343 0
-234 -228 343 0
235 228 365 0
235 -228 -365 0
-235 228 -365 0
-235 -228 365 0
236 228 373 0
236 -228 -373 0
-236 228 -373 0
-236 -228 373 0
237 228 375 0
237 -228 -375 0
-237 228 -375 0
-237 -228 375 0
239 238 245 0
239 -238 -245 0
-239 238 -245 0
-239 -238 245 0
240 238 296 0
240 -238 -296 0
-240 238 -296 0
-240 -238 296 0
241 238 365 0
241 -238 -365 0
-241 238 -365 0
-241 -238 365 0
242 238 370 0
242 -238 -370 0
-242 238 -370 0
-242 -238 370 0
243 238 373 0
243 -238 -373 0
-243 238 -373 0
-243 -238 373 0
244 238 375 0
244 -238 -375 0
-244 238 -375 0
-244 -238 375 0
246 245 252 0
246 -245 -252 0
-246 245 -252 0
-246 -245 252 0
247 245 276 0
247 -245 -276 0
-247 245 -276 0
-247 -245 276 0
248 245 339 0
248 -245 -339 0
-248 245 -339 0
-248 -245 339 0
249 245 346 0
249 -245 -346 0
-249 245 -346 0
-249 -245 346 0
250 245 357 0
250 -245 -357 0
-250 245 -357 0
-250 -245 357 0
251 245 365 0
251 -245 -365 0
-251 245 -365 0
-251 -245 365 0
253 252 300 0
253 -252 -300 0
-253 252 -300 0
-253 -252 300 0
254 252 309 0
254 -252 -309 0
-254 252 -309 0
-254 -252 309 0
255 252 321 0
255 -252 -321 0
-255 252 -321 0
-255 -252 321 0
256 252 328 0
256 -252 -328 0
-256 252 -328 0
-256 -252 328 0
257 252 333 0
257 -252 -333 0
-257 252 -333 0
-257 -252 333 0
258 252 339 0
258 -252 -339 0
-258 252 -339 0
-258 -252 339 0
260 259 339 0
260 -259 -339 0
-260 259 -339 0
-260 -259 339 0
261 259 367 0
261 -259 -367 0
-261 259 -367 0
-261 -259 367 0
262 259 370 0
262 -259 -370 0
-262 259 -370 0
-262 -259 370 0
263 259 377 0
263 -259 -377 0
-263 259 -377 0
-263 -259 377 0
265 264 296 0
265 -264 -296 0
-265 264 -296 0
-265 -264 296 0
266 264 321 0
266 -264 -321 0
-266 264 -321 0
-266 -264 321 0
267 264 328 0
267 -264 -328 0
-267 264 -328 0
-267 -264 328 0
268 264 350 0
268 -264 -350 0
-268 264 -350 0
-268 -264 350 0
269 264 354 0
269 -264 -354 0
-269 264 -354 0
-269 -264 354 0
270 264 377 0
270 -264 -377 0
-270 264 -377 0
-270 -264 377 0
272 271 309 0
272 -271 -309 0
-272 271 -309 0
-272 -271 309 0
273 271 333 0
273 -271 -333 0
-273 271 -333 0
-273 -271 333 0
274 271 375 0
274 -271 -375 0
-274 271 -375 0
-274 -271 375 0
275 271 377 0
275 -271 -377 0
-275 271 -377 0
-275 -271 377 0
277 276 285 0
277 -276 -285 0
-277 276 -285 0
-277 -276 285 0
278 276 309 0
278 -276 -309 0
-278 276 -309 0
-278 -276 309 0
279 276 321 0
279 -276 -321 0
-279 276 -321 0
-279 -276 321 0
280 276 343 0
280 -276 -343 0
-280 276 -343 0
-280 -276 343 0
281 276 350 0
281 -276 -350 0
-281 276 -350 0
-281 -276 350 0
282 276 357 0
282 -276 -357 0
-282 276 -357 0
-282 -276 357 0
283 276 365 0
283 -276 -365 0
-283 276 -365 0
-283 -276 365 0
284 276 370 0
284 -276 -370 0
-284 276 -370 0
-284 -276 370 0
286 285 309 0
286 -285 -309 0
-286 285 -309 0
-286 -285 309 0
287 285 339 0
287 -285 -339 0
-287 285 -339 0
-287 -285 339 0
288 285 350 0
288 -285 -350 0
-288 285 -350 0
-288 -285 350 0
289 285 362 0
289 -285 -362 0
-289 285 -362 0
-289 -285 362 0
290 285 370 0
290 -285 -370 0
-290 285 -370 0
-290 -285 370 0
291 285 378 0
291 -285 -378 0
-291 285 -378 0
-291 -285 378 0
293 292 309 0
293 -292 -309 0
-293 292 -309 0
-293 -292 309 0
294 292 339 0
294 -292 -339 0
-294 292 -339 0
-294 -292 339 0
295 292 367 0
295 -292 -367 0
-295 292 -367 0
-295 -292 367 0
297 296 343 0
297 -296 -343 0
-297 296 -343 0
-297 -296 343 0
298 296 357 0
298 -296 -357 0
-298 296 -357 0
-298 -296 357 0
299 296 360 0
299 -296 -360 0
-299 296 -360 0
-299 -296 360 0
301 300 309 0
301 -300 -309 0
-301 300 -309 0
-301 -300 309 0
302 300 328 0
302 -300 -328 0
-302 300 -328 0
-302 -300 328 0
303 300 333 0
303 -300 -333 0
-303 300 -333 0
-303 -300 333 0
304 300 339 0
304 -300 -339 0
-304 300 -339 0
-304 -300 339 0
305 300 343 0
305 -300 -343 0
-305 300 -343 0
-305 -300 343 0
306 300 346 0
306 -300 -346 0
-306 300 -346 0
-306 -300 346 0
307 300 362 0
307 -300 -362 0
-307 300 -362 0
-307 -300 362 0
308 300 377 0
308 -300 -377 0
-308 300 -377 0
-308 -300 377 0
310 309 321 0
310 -309 -321 0
-310 309 -321 0
-310 -309 321 0
311 309 328 0
311 -309 -328 0
-311 309 -328 0
-311 -309 328 0
312 309 343 0
312 -309 -343 0
-312 309 -343 0
-312 -309 343 0
313 309 346 0
313 -309 -346 0
-313 309 -346 0
-313 -309 346 0
314 309 357 0
314 -309 -357 0
-314 309 -357 0
-314 -309 357 0
315 309 360 0
315 -309 -360 0
-315 309 -360 0
-315 -309 360 0
316 309 362 0
316 -309 -362 0
-316 309 -362 0
-316 -309 362 0
317 309 365 0
317 -309 -365 0
-317 309 -365 0
-317 -309 365 0
318 309 370 0
318 -309 -370 0
-318 309 -370 0
-318 -309 370 0
319 309 373 0
319 -309 -373 0
-319 309 -373 0
-319 -309 373 0
320 309 375 0
320 -309 -375 0
-320 309 -375 0
-320 -309 375 0
322 321 333 0
322 -321 -333 0
-322 321 -333 0
-322 -321 333 0
323 321 339 0
323 -321 -339 0
-323 321 -339 0
-323 -321 339 0
324 321 350 0
324 -321 -350 0
-324 321 -350 0
-324 -321 350 0
325 321 360 0
325 -321 -360 0
-325 321 -360 0
-325 -321 360 0
326 321 365 0
326 -321 -365 0
-326 321 -365 0
-326 -321 365 0
327 321 367 0
327 -321 -367 0
-327 321 -367 0
-327 -321 367 0
329 328 339 0
329 -328 -339 0
-329 328 -339 0
-329 -328 339 0
330 328 362 0
330 -328 -362 0
-330 328 -362 0
-330 -328 362 0
331 328 367 0
331 -328 -367 0
-331 328 -367 0
-331 -328 367 0
332 328 370 0
332 -328 -370 0
-332 328 -370 0
-332 -328 370 0
334 333 350 0
334 -333 -350 0
-334 333 -350 0
-334 -333 350 0
335 333 354 0
335 -333 -354 0
-335 333 -354 0
-335 -333 354 0
336 333 362 0
336 -333 -362 0
-336 333 -362 0
-336 -333 362 0
337 333 365 0
337 -333 -365 0
-337 333 -365 0
-337 -333 365 0
338 333 370 0
338 -333 -370 0
-338 333 -370 0
-338 -333 370 0
340 339 346 0
340 -339 -346 0
-340 339 -346 0
-340 -339 346 0
341 339 357 0
341 -339 -357 0
-341 339 -357 0
-341 -339 357 0
342 339 370 0
342 -339 -370 0
-342 339 -370 0
-342 -339 370 0
344 343 357 0
344 -343 -357 0
-344 343 -357 0
-344 -343 357 0
345 343 365 0
345 -343 -365 0
-345 343 -365 0
-345 -343 365 0
347 346 365 0
347 -346 -365 0
-347 346 -365 0
-347 -346 365 0
348 346 367 0
348 -346 -367 0
-348 346 -367 0
-348 -346 367 0
349 346 370 0
349 -346 -370 0
-349 346 -370 0
-349 -346 370 0
351 350 365 0
351 -350 -365 0
-351 350 -365 0
-351 -350 365 0
352 350 370 0
352 -350 -370 0
-352 350 -370 0
-352 -350 370 0
353 350 373 0
353 -350 -373 0
-353 350 -373 0
-353 -350 373 0
355 354 365 0
355 -354 -365 0
-355 354 -365 0
-355 -354 365 0
356 354 373 0
356 -354 -373 0
-356 354 -373 0
-356 -354 373 0
358 357 360 0
358 -357 -360 0
-358 357 -360 0
-358 -357 360 0
359 357 367 0
359 -357 -367 0
-359 357 -367 0
-359 -357 367 0
361 360 367 0
361 -360 -367 0
-361 360 -367 0
-361 -360 367 0
363 362 373 0
363 -362 -373 0
-363 362 -373 0
-363 -362 373 0
364 362 377 0
364 -362 -377 0
-364 362 -377 0
-364 -362 377 0
366 365 367 0
366 -365 -367 0
-366 365 -367 0
-366 -365 367 0
368 367 370 0
368 -367 -370 0
-368 367 -370 0
-368 -367 370 0
369 367 375 0
369 -367 -375 0
-369 367 -375 0
-369 -367 375 0
371 370 375 0
371 -370 -375 0
-371 370 -375 0
-371 -370 375 0
372 370 377 0
372 -370 -377 0
-372 370 -377 0
-372 -370 377 0
374 373 377 0
374 -373 -377 0
-374 373 -377 0
-374 -373 377 0
376 375 377 0
376 -375 -377 0
-376 375 -377 0
-376 -375 377 0
